
Gurobi 8.1.1 (win64, Python) logging started 01/05/20 22:02:36

Academic license - for non-commercial use only

Gurobi 8.1.1 (win64, Python) logging started 01/05/20 22:17:02

Academic license - for non-commercial use only

Gurobi 8.1.1 (win64, Python) logging started 01/05/20 22:33:10

Academic license - for non-commercial use only

Gurobi 8.1.1 (win64, Python) logging started 01/05/20 22:34:45

Academic license - for non-commercial use only

Gurobi 8.1.1 (win64, Python) logging started 01/05/20 22:35:12

Academic license - for non-commercial use only

Gurobi 8.1.1 (win64, Python) logging started 01/05/20 22:38:06

Academic license - for non-commercial use only

Gurobi 8.1.1 (win64, Python) logging started 01/05/20 22:40:44

Academic license - for non-commercial use only

Gurobi 8.1.1 (win64, Python) logging started 01/05/20 22:46:25

Academic license - for non-commercial use only

Gurobi 8.1.1 (win64, Python) logging started 01/05/20 22:46:49

Academic license - for non-commercial use only

Gurobi 8.1.1 (win64, Python) logging started 01/05/20 22:48:27

Academic license - for non-commercial use only

Gurobi 8.1.1 (win64, Python) logging started 01/05/20 22:49:23

Academic license - for non-commercial use only

Gurobi 8.1.1 (win64, Python) logging started 01/05/20 22:49:30

Academic license - for non-commercial use only

Gurobi 8.1.1 (win64, Python) logging started 01/05/20 22:50:31

Academic license - for non-commercial use only

Gurobi 8.1.1 (win64, Python) logging started 01/05/20 22:52:21

Academic license - for non-commercial use only

Gurobi 8.1.1 (win64, Python) logging started 01/05/20 23:14:19

Academic license - for non-commercial use only

Gurobi 8.1.1 (win64, Python) logging started 01/05/20 23:19:08

Academic license - for non-commercial use only

Gurobi 8.1.1 (win64, Python) logging started 01/05/20 23:21:07

Academic license - for non-commercial use only

Gurobi 8.1.1 (win64, Python) logging started 01/06/20 08:36:03

Academic license - for non-commercial use only

Gurobi 8.1.1 (win64, Python) logging started 01/06/20 08:37:12

Academic license - for non-commercial use only

Gurobi 8.1.1 (win64, Python) logging started 01/06/20 08:38:01

Academic license - for non-commercial use only

Gurobi 8.1.1 (win64, Python) logging started 01/06/20 08:39:25

Academic license - for non-commercial use only

Gurobi 8.1.1 (win64, Python) logging started 01/06/20 09:42:19

Academic license - for non-commercial use only

Gurobi 8.1.1 (win64, Python) logging started 01/06/20 12:46:25

Academic license - for non-commercial use only

Gurobi 8.1.1 (win64, Python) logging started 01/06/20 12:47:05

Academic license - for non-commercial use only

Gurobi 8.1.1 (win64, Python) logging started 01/06/20 12:47:42

Academic license - for non-commercial use only

Gurobi 8.1.1 (win64, Python) logging started 01/06/20 12:47:46

Academic license - for non-commercial use only

Gurobi 8.1.1 (win64, Python) logging started 01/06/20 12:48:53

Academic license - for non-commercial use only

Gurobi 8.1.1 (win64, Python) logging started 01/06/20 12:51:08

Academic license - for non-commercial use only

Gurobi 8.1.1 (win64, Python) logging started 01/06/20 12:53:46

Academic license - for non-commercial use only

Gurobi 8.1.1 (win64, Python) logging started 01/06/20 12:53:56

Academic license - for non-commercial use only

Gurobi 8.1.1 (win64, Python) logging started 01/06/20 12:54:18

Academic license - for non-commercial use only

Gurobi 8.1.1 (win64, Python) logging started 01/06/20 13:03:29

Academic license - for non-commercial use only

Gurobi 8.1.1 (win64, Python) logging started 01/06/20 13:03:42

Academic license - for non-commercial use only

Gurobi 8.1.1 (win64, Python) logging started 01/06/20 13:05:16

Academic license - for non-commercial use only

Gurobi 8.1.1 (win64, Python) logging started 01/06/20 13:06:37

Academic license - for non-commercial use only

Gurobi 8.1.1 (win64, Python) logging started 01/06/20 13:11:53

Academic license - for non-commercial use only

Gurobi 8.1.1 (win64, Python) logging started 01/06/20 13:12:13

Academic license - for non-commercial use only

Gurobi 8.1.1 (win64, Python) logging started 01/06/20 18:46:16

Academic license - for non-commercial use only

Gurobi 8.1.1 (win64, Python) logging started 01/06/20 18:53:04

Academic license - for non-commercial use only

Gurobi 8.1.1 (win64, Python) logging started 01/06/20 18:53:16

Academic license - for non-commercial use only

Gurobi 8.1.1 (win64, Python) logging started 01/06/20 18:53:29

Academic license - for non-commercial use only

Gurobi 8.1.1 (win64, Python) logging started 01/06/20 18:54:12

Academic license - for non-commercial use only

Gurobi 8.1.1 (win64, Python) logging started 01/06/20 19:00:59

Academic license - for non-commercial use only

Gurobi 8.1.1 (win64, Python) logging started 01/06/20 19:01:38

Academic license - for non-commercial use only

Gurobi 8.1.1 (win64, Python) logging started 01/06/20 19:01:48

Academic license - for non-commercial use only

Gurobi 8.1.1 (win64, Python) logging started 01/06/20 19:02:45

Academic license - for non-commercial use only

Gurobi 8.1.1 (win64, Python) logging started 01/06/20 19:02:55

Academic license - for non-commercial use only

Gurobi 8.1.1 (win64, Python) logging started 01/06/20 19:04:16

Academic license - for non-commercial use only

Gurobi 8.1.1 (win64, Python) logging started 01/06/20 19:10:33

Academic license - for non-commercial use only

Gurobi 8.1.1 (win64, Python) logging started 01/06/20 19:11:44

Academic license - for non-commercial use only

Gurobi 8.1.1 (win64, Python) logging started 01/06/20 19:11:53

Academic license - for non-commercial use only

Gurobi 8.1.1 (win64, Python) logging started 01/06/20 19:12:17

Academic license - for non-commercial use only

Gurobi 8.1.1 (win64, Python) logging started 01/06/20 19:12:48

Academic license - for non-commercial use only

Gurobi 8.1.1 (win64, Python) logging started 01/06/20 19:14:15

Academic license - for non-commercial use only

Gurobi 8.1.1 (win64, Python) logging started 01/06/20 19:14:59

Academic license - for non-commercial use only

Gurobi 8.1.1 (win64, Python) logging started 01/06/20 19:15:18

Academic license - for non-commercial use only

Gurobi 8.1.1 (win64, Python) logging started 01/06/20 19:16:37

Academic license - for non-commercial use only

Gurobi 8.1.1 (win64, Python) logging started 01/06/20 19:20:45

Academic license - for non-commercial use only

Gurobi 8.1.1 (win64, Python) logging started 01/06/20 19:22:49

Academic license - for non-commercial use only

Gurobi 8.1.1 (win64, Python) logging started 01/06/20 19:23:30

Academic license - for non-commercial use only

Gurobi 8.1.1 (win64, Python) logging started 01/06/20 19:28:56

Academic license - for non-commercial use only

Gurobi 8.1.1 (win64, Python) logging started 01/06/20 19:32:19

Academic license - for non-commercial use only

Gurobi 8.1.1 (win64, Python) logging started 01/06/20 19:36:58

Academic license - for non-commercial use only

Gurobi 8.1.1 (win64, Python) logging started 01/06/20 19:43:22

Academic license - for non-commercial use only

Gurobi 8.1.1 (win64, Python) logging started 01/06/20 19:49:33

Academic license - for non-commercial use only

Gurobi 8.1.1 (win64, Python) logging started 01/06/20 19:58:57

Academic license - for non-commercial use only

Gurobi 8.1.1 (win64, Python) logging started 01/06/20 19:59:44

Academic license - for non-commercial use only

Gurobi 8.1.1 (win64, Python) logging started 01/06/20 19:59:54

Academic license - for non-commercial use only

Gurobi 8.1.1 (win64, Python) logging started 01/06/20 20:03:40

Academic license - for non-commercial use only

Gurobi 8.1.1 (win64, Python) logging started 01/06/20 20:04:25

Academic license - for non-commercial use only

Gurobi 8.1.1 (win64, Python) logging started 01/06/20 20:04:33

Academic license - for non-commercial use only

Gurobi 8.1.1 (win64, Python) logging started 01/06/20 20:04:42

Academic license - for non-commercial use only

Gurobi 8.1.1 (win64, Python) logging started 01/06/20 23:03:17

Academic license - for non-commercial use only

Gurobi 8.1.1 (win64, Python) logging started 01/06/20 23:10:05

Academic license - for non-commercial use only

Gurobi 8.1.1 (win64, Python) logging started 01/07/20 15:35:11

Academic license - for non-commercial use only

Gurobi 8.1.1 (win64, Python) logging started 01/07/20 16:39:53

Academic license - for non-commercial use only

Gurobi 8.1.1 (win64, Python) logging started 01/08/20 07:59:30

Academic license - for non-commercial use only

Gurobi 8.1.1 (win64, Python) logging started 01/08/20 08:00:52

Academic license - for non-commercial use only

Gurobi 8.1.1 (win64, Python) logging started 01/08/20 08:10:32

Academic license - for non-commercial use only

Gurobi 8.1.1 (win64, Python) logging started 01/08/20 08:17:05

Academic license - for non-commercial use only

Gurobi 8.1.1 (win64, Python) logging started 01/08/20 08:25:35

Academic license - for non-commercial use only

Gurobi 8.1.1 (win64, Python) logging started 01/08/20 08:27:40

Academic license - for non-commercial use only

Gurobi 8.1.1 (win64, Python) logging started 01/08/20 08:27:55

Academic license - for non-commercial use only

Gurobi 8.1.1 (win64, Python) logging started 01/08/20 08:27:56

Academic license - for non-commercial use only

Gurobi 8.1.1 (win64, Python) logging started 01/08/20 08:28:01

Academic license - for non-commercial use only

Gurobi 8.1.1 (win64, Python) logging started 01/08/20 08:28:01

Academic license - for non-commercial use only

Gurobi 8.1.1 (win64, Python) logging started 01/08/20 08:28:03

Academic license - for non-commercial use only

Gurobi 8.1.1 (win64, Python) logging started 01/08/20 08:28:04

Academic license - for non-commercial use only

Gurobi 8.1.1 (win64, Python) logging started 01/08/20 08:28:06

Academic license - for non-commercial use only
